MARKOV
231
 2 2 2 2 2 2 2 2 2 2 2 2 2 2 2 2 2 2 2 2 2 2 2 2 2 2 2 2 2 2 2 2 2 2 2 2 2 2 2 2 2 2 2 2 2 2 2 2 2 2 2 2 2 2 2 2 2 2 2 2 2 2 2 2 2 2 2 2 2 2 2 2 2 2 2 2 2 2 2 2 2 2 2 2 2 2 2 2 2 2 2 2 2 2 2 2 2 2 2 2 2 2 2 2 2 2 2 2 2 2 2 2 2 2 2 2 2 2 2 2 2 2 2 2 2 2 2 2 2 2 2 2 2 2 2 2 2 2 2 2 2 2 2 2 2 2 2 2 2 2 2 2 2 2 2 2 2 2 2 2 2 2 2 2 2 2 2 2 2 2 2 2 2 2 2 2 2 2 2 2 2 2 2 2 2 2 2 2 2 2 2 2 2 2 2 2 2 2 2 2 2 2 2 2 2 2 2 2 2 2 2 2 2 2 2 2 2 2 2 2 2 2 2 2 2 2 2 2 2 2 2
857
1	0 
1	1 
1	2 
1	3 
1	4 
1	5 
1	6 
1	7 
1	8 
1	9 
1	10 
1	11 
1	12 
1	13 
1	14 
1	15 
1	16 
1	17 
1	18 
1	19 
1	20 
1	21 
1	22 
1	23 
1	24 
1	25 
1	26 
1	27 
1	28 
1	29 
1	30 
1	31 
1	32 
1	33 
1	34 
1	35 
1	36 
1	37 
1	38 
1	39 
1	40 
1	41 
1	42 
1	43 
1	44 
1	45 
1	46 
1	47 
1	48 
1	49 
1	50 
1	51 
1	52 
1	53 
1	54 
1	55 
1	56 
1	57 
1	58 
1	59 
1	60 
1	61 
1	62 
1	63 
1	64 
1	65 
1	66 
1	67 
1	68 
1	69 
1	70 
1	71 
1	72 
1	73 
1	74 
1	75 
1	76 
1	77 
1	78 
1	79 
1	80 
1	81 
1	82 
1	83 
1	84 
1	85 
1	86 
1	87 
1	88 
1	89 
1	90 
1	91 
1	92 
1	93 
1	94 
1	95 
1	96 
1	97 
1	98 
1	99 
1	100 
1	101 
1	102 
1	103 
1	104 
1	105 
1	106 
1	107 
1	108 
1	109 
1	110 
1	111 
1	112 
1	113 
1	114 
1	115 
1	116 
1	117 
1	118 
1	119 
1	120 
1	121 
1	122 
1	123 
1	124 
1	125 
1	126 
1	127 
1	128 
1	129 
1	130 
1	131 
1	132 
1	133 
1	134 
1	135 
1	136 
1	137 
1	138 
1	139 
1	140 
1	141 
1	142 
1	143 
1	144 
1	145 
1	146 
1	147 
1	148 
1	149 
1	150 
1	151 
1	152 
1	153 
1	154 
1	155 
1	156 
1	157 
1	158 
1	159 
1	160 
1	161 
1	162 
1	163 
1	164 
1	165 
1	166 
1	167 
1	168 
1	169 
1	170 
1	171 
1	172 
1	173 
1	174 
1	175 
1	176 
1	177 
1	178 
1	179 
1	180 
1	181 
1	182 
1	183 
1	184 
1	185 
1	186 
1	187 
1	188 
1	189 
1	190 
1	191 
1	192 
1	193 
1	194 
1	195 
1	196 
1	197 
1	198 
1	199 
1	200 
1	201 
1	202 
1	203 
1	204 
1	205 
1	206 
1	207 
1	208 
1	209 
1	210 
1	211 
1	212 
1	213 
1	214 
1	215 
1	216 
1	217 
1	218 
1	219 
1	220 
1	221 
1	222 
1	223 
1	224 
1	225 
1	226 
1	227 
1	228 
1	229 
1	230 
2	1 2 
2	1 3 
2	1 4 
2	1 67 
2	1 69 
2	1 161 
2	1 194 
2	2 3 
2	2 190 
2	2 191 
2	2 193 
2	2 194 
2	3 4 
2	3 5 
2	3 189 
2	3 190 
2	4 5 
2	4 18 
2	4 68 
2	4 69 
2	5 17 
2	5 18 
2	5 37 
2	5 189 
2	6 88 
2	6 90 
2	6 104 
2	6 106 
2	6 163 
2	7 8 
2	7 21 
2	7 67 
2	7 161 
2	7 168 
2	7 195 
2	7 230 
2	8 21 
2	8 146 
2	8 167 
2	8 168 
2	9 10 
2	9 11 
2	9 134 
2	9 135 
2	9 218 
2	9 223 
2	10 11 
2	10 40 
2	10 144 
2	10 218 
2	11 40 
2	11 135 
2	12 13 
2	12 14 
2	12 20 
2	12 98 
2	12 100 
2	12 211 
2	12 213 
2	13 14 
2	13 213 
2	14 19 
2	14 20 
2	15 16 
2	15 17 
2	15 18 
2	15 19 
2	15 20 
2	16 17 
2	16 19 
2	16 34 
2	16 36 
2	17 18 
2	17 34 
2	17 37 
2	18 20 
2	18 68 
2	18 100 
2	19 20 
2	20 100 
2	21 23 
2	21 67 
2	21 99 
2	21 150 
2	22 23 
2	22 41 
2	22 45 
2	22 99 
2	22 101 
2	23 41 
2	23 46 
2	23 99 
2	23 150 
2	24 26 
2	24 27 
2	24 28 
2	24 93 
2	24 202 
2	24 204 
2	25 26 
2	25 27 
2	25 29 
2	25 49 
2	25 124 
2	26 27 
2	26 28 
2	26 49 
2	27 29 
2	27 201 
2	27 203 
2	27 204 
2	28 49 
2	28 93 
2	28 94 
2	29 123 
2	29 124 
2	29 200 
2	29 203 
2	30 31 
2	30 32 
2	30 110 
2	30 111 
2	30 205 
2	31 32 
2	31 38 
2	31 205 
2	32 33 
2	32 38 
2	32 109 
2	32 111 
2	33 34 
2	33 35 
2	33 38 
2	33 39 
2	33 109 
2	33 112 
2	34 35 
2	34 36 
2	34 37 
2	34 39 
2	35 37 
2	35 112 
2	35 114 
2	36 39 
2	37 114 
2	37 189 
2	38 39 
2	40 135 
2	40 136 
2	41 42 
2	41 44 
2	41 45 
2	41 46 
2	42 44 
2	42 46 
2	42 55 
2	42 56 
2	43 44 
2	43 45 
2	43 98 
2	43 210 
2	43 211 
2	43 216 
2	44 45 
2	44 56 
2	44 86 
2	44 216 
2	45 101 
2	46 55 
2	46 150 
2	46 151 
2	47 48 
2	47 49 
2	47 52 
2	47 72 
2	47 124 
2	47 171 
2	48 71 
2	48 72 
2	48 122 
2	48 123 
2	48 124 
2	49 50 
2	49 51 
2	49 52 
2	49 94 
2	49 124 
2	50 51 
2	50 91 
2	50 94 
2	51 52 
2	51 174 
2	52 171 
2	52 173 
2	52 174 
2	53 54 
2	53 96 
2	53 97 
2	53 196 
2	54 95 
2	54 96 
2	54 196 
2	54 199 
2	55 56 
2	55 75 
2	55 78 
2	55 151 
2	56 75 
2	56 85 
2	56 86 
2	57 58 
2	57 59 
2	57 60 
2	57 62 
2	58 59 
2	58 60 
2	58 61 
2	58 66 
2	59 61 
2	60 62 
2	60 65 
2	60 66 
2	60 176 
2	60 184 
2	61 63 
2	61 66 
2	62 176 
2	62 177 
2	63 64 
2	63 66 
2	63 137 
2	64 65 
2	64 66 
2	64 137 
2	64 140 
2	65 66 
2	65 138 
2	65 140 
2	65 184 
2	65 185 
2	67 69 
2	67 99 
2	67 161 
2	68 69 
2	68 100 
2	68 101 
2	69 99 
2	69 101 
2	70 71 
2	70 74 
2	70 122 
2	70 208 
2	71 72 
2	71 73 
2	71 122 
2	72 73 
2	72 171 
2	73 170 
2	73 171 
2	74 206 
2	74 208 
2	75 77 
2	75 78 
2	75 85 
2	76 77 
2	76 78 
2	76 82 
2	76 156 
2	76 222 
2	77 81 
2	77 82 
2	77 84 
2	78 151 
2	78 156 
2	78 159 
2	79 80 
2	79 81 
2	79 87 
2	79 138 
2	79 139 
2	79 185 
2	79 186 
2	80 81 
2	80 82 
2	80 139 
2	81 82 
2	81 84 
2	81 87 
2	82 139 
2	82 220 
2	82 222 
2	83 84 
2	83 85 
2	83 86 
2	83 87 
2	83 182 
2	83 183 
2	83 214 
2	84 85 
2	84 87 
2	85 86 
2	86 214 
2	86 216 
2	87 182 
2	87 186 
2	88 90 
2	88 133 
2	88 163 
2	89 90 
2	89 129 
2	89 131 
2	89 133 
2	89 148 
2	89 158 
2	90 102 
2	90 104 
2	90 133 
2	90 158 
2	91 92 
2	91 93 
2	91 94 
2	92 93 
2	92 116 
2	92 120 
2	92 175 
2	93 94 
2	93 113 
2	93 120 
2	93 202 
2	95 96 
2	95 136 
2	95 199 
2	96 97 
2	98 100 
2	98 101 
2	98 211 
2	99 101 
2	100 101 
2	102 103 
2	102 104 
2	102 153 
2	102 157 
2	102 158 
2	103 104 
2	103 105 
2	103 107 
2	103 153 
2	103 154 
2	104 106 
2	104 107 
2	105 107 
2	105 134 
2	105 154 
2	105 187 
2	105 197 
2	105 199 
2	106 107 
2	106 163 
2	106 198 
2	107 197 
2	107 198 
2	108 109 
2	108 110 
2	108 111 
2	108 118 
2	108 119 
2	109 111 
2	109 112 
2	109 118 
2	110 111 
2	110 119 
2	112 114 
2	112 115 
2	112 118 
2	113 115 
2	113 117 
2	113 118 
2	113 120 
2	113 202 
2	114 115 
2	114 189 
2	114 190 
2	115 118 
2	115 188 
2	115 190 
2	115 202 
2	116 117 
2	116 120 
2	116 175 
2	117 118 
2	117 119 
2	117 120 
2	117 175 
2	118 119 
2	119 175 
2	121 122 
2	121 123 
2	121 208 
2	121 209 
2	121 229 
2	122 123 
2	122 208 
2	123 124 
2	123 200 
2	123 229 
2	125 126 
2	125 127 
2	125 132 
2	126 127 
2	126 206 
2	126 207 
2	127 128 
2	127 132 
2	127 165 
2	127 207 
2	127 226 
2	128 129 
2	128 131 
2	128 132 
2	128 226 
2	129 131 
2	129 148 
2	129 225 
2	129 226 
2	130 131 
2	130 132 
2	130 133 
2	131 132 
2	131 133 
2	134 135 
2	134 154 
2	134 187 
2	134 223 
2	135 136 
2	135 187 
2	136 187 
2	136 199 
2	137 140 
2	137 143 
2	138 139 
2	138 140 
2	138 185 
2	139 140 
2	139 141 
2	139 219 
2	139 220 
2	140 141 
2	140 143 
2	141 142 
2	141 143 
2	141 219 
2	142 143 
2	142 144 
2	142 145 
2	142 218 
2	142 219 
2	143 145 
2	144 145 
2	144 218 
2	146 147 
2	146 149 
2	146 150 
2	146 151 
2	146 167 
2	146 225 
2	147 148 
2	147 149 
2	147 225 
2	148 149 
2	148 158 
2	148 160 
2	148 225 
2	149 151 
2	149 159 
2	149 160 
2	150 151 
2	151 159 
2	152 153 
2	152 154 
2	152 155 
2	152 222 
2	152 223 
2	152 224 
2	153 154 
2	153 155 
2	153 157 
2	154 223 
2	155 156 
2	155 157 
2	155 222 
2	156 157 
2	156 159 
2	156 222 
2	157 158 
2	157 159 
2	157 160 
2	158 160 
2	159 160 
2	161 194 
2	161 195 
2	162 163 
2	162 196 
2	162 198 
2	163 198 
2	164 165 
2	164 166 
2	164 207 
2	164 209 
2	164 229 
2	165 166 
2	165 167 
2	165 168 
2	165 207 
2	165 226 
2	166 168 
2	166 228 
2	166 229 
2	167 168 
2	167 225 
2	167 226 
2	168 228 
2	168 230 
2	169 170 
2	169 172 
2	169 173 
2	170 171 
2	170 173 
2	171 173 
2	172 173 
2	172 174 
2	173 174 
2	176 177 
2	176 180 
2	176 184 
2	177 179 
2	177 180 
2	178 179 
2	178 180 
2	178 181 
2	178 182 
2	178 183 
2	179 180 
2	179 181 
2	180 182 
2	180 186 
2	181 183 
2	181 215 
2	181 217 
2	182 183 
2	182 186 
2	183 214 
2	183 217 
2	184 185 
2	184 186 
2	185 186 
2	187 199 
2	188 190 
2	188 191 
2	188 202 
2	188 204 
2	189 190 
2	190 191 
2	191 192 
2	191 193 
2	191 201 
2	191 204 
2	192 193 
2	192 194 
2	192 195 
2	192 201 
2	192 203 
2	192 227 
2	192 228 
2	193 194 
2	194 195 
2	195 228 
2	195 230 
2	196 197 
2	196 198 
2	196 199 
2	197 198 
2	197 199 
2	200 203 
2	200 227 
2	200 229 
2	201 203 
2	201 204 
2	202 204 
2	203 227 
2	206 207 
2	206 208 
2	206 209 
2	207 209 
2	208 209 
2	209 229 
2	210 211 
2	210 212 
2	210 216 
2	210 217 
2	211 212 
2	211 213 
2	212 213 
2	212 215 
2	212 217 
2	214 216 
2	214 217 
2	215 217 
2	216 217 
2	218 219 
2	218 221 
2	218 223 
2	219 220 
2	219 221 
2	220 221 
2	220 222 
2	220 224 
2	221 223 
2	221 224 
2	222 224 
2	223 224 
2	225 226 
2	227 228 
2	227 229 
2	228 229 
2	228 230 
0	

2
 0.252912 1
2
 0.262238 1
2
 1 0.198401
2
 1 0.713704
2
 0.932534 1
2
 1 0.454366
2
 0.812136 1
2
 0.096538 1
2
 0.263516 1
2
 1 0.500548
2
 1 0.652134
2
 1 0.502083
2
 0.7468 1
2
 1 0.207678
2
 1 0.171702
2
 1 0.188495
2
 1 0.176608
2
 1 0.20713
2
 1 0.369013
2
 1 0.115902
2
 1 0.621544
2
 0.242431 1
2
 0.531477 1
2
 0.177302 1
2
 1 0.564307
2
 1 0.343503
2
 1 0.774046
2
 1 0.25032
2
 1 0.566051
2
 1 0.345915
2
 1 0.141912
2
 1 0.312879
2
 1 0.842798
2
 1 0.461636
2
 1 0.259045
2
 0.803337 1
2
 1 0.144988
2
 1 0.65797
2
 1 0.525864
2
 1 0.0745864
2
 0.575915 1
2
 1 0.411337
2
 1 0.578282
2
 0.626044 1
2
 0.792652 1
2
 0.833449 1
2
 1 0.76649
2
 1 0.699706
2
 1 0.853627
2
 0.215585 1
2
 1 0.266998
2
 1 0.209682
2
 1 0.409882
2
 1 0.351913
2
 1 0.520776
2
 0.576483 1
2
 0.141671 1
2
 1 0.0487863
2
 1 0.0950209
2
 1 0.0685615
2
 1 0.0675302
2
 1 0.091442
2
 1 0.110381
2
 1 0.096055
2
 1 0.147419
2
 1 0.132801
2
 1 0.085113
2
 0.541938 1
2
 0.351609 1
2
 0.283639 1
2
 1 0.174079
2
 1 0.249226
2
 1 0.11866
2
 1 0.0783229
2
 1 0.244164
2
 0.826554 1
2
 1 0.455163
2
 1 0.540613
2
 0.825782 1
2
 1 0.412273
2
 1 0.622117
2
 0.375792 1
2
 1 0.598689
2
 1 0.332421
2
 0.180959 1
2
 1 0.896836
2
 0.593953 1
2
 1 0.393854
2
 1 0.715274
2
 1 0.516041
2
 1 0.344377
2
 0.648511 1
2
 1 0.840805
2
 0.490633 1
2
 0.36908 1
2
 1 0.310636
2
 1 0.308923
2
 1 0.546922
2
 1 0.828515
2
 1 0.565803
2
 1 0.703047
2
 1 0.515148
2
 1 0.601267
2
 1 0.385534
2
 1 0.449176
2
 1 0.649461
2
 1 0.726434
2
 1 0.147803
2
 1 0.731985
2
 1 0.147769
2
 1 0.4395
2
 1 0.183215
2
 1 0.313264
2
 1 0.416469
2
 1 0.340514
2
 1 0.226392
2
 1 0.35143
2
 1 0.396091
2
 1 0.176697
2
 1 0.282978
2
 1 0.763199
2
 1 0.366687
2
 1 0.418822
2
 1 0.32653
2
 1 0.929279
2
 1 0.0798901
2
 1 0.0835727
2
 1 0.113226
2
 1 0.136974
2
 0.834305 1
2
 1 0.0711927
2
 1 0.252402
2
 1 0.0981602
2
 1 0.385406
2
 1 0.862333
2
 0.627911 1
2
 0.648928 1
2
 1 0.978586
2
 1 0.179503
2
 1 0.238006
2
 1 0.249297
2
 1 0.418142
2
 1 0.272719
2
 1 0.321478
2
 1 0.610579
2
 1 0.122723
2
 1 0.831308
2
 0.382007 1
2
 0.20274 1
2
 0.445127 1
2
 1 0.946127
2
 0.225817 1
2
 1 0.209705
2
 1 0.214215
2
 1 0.433882
2
 1 0.385926
2
 1 0.312326
2
 1 0.522915
2
 1 0.43128
2
 1 0.794702
2
 1 0.895518
2
 0.0220994 1
2
 1 0.464835
2
 0.954857 1
2
 1 0.684755
2
 1 0.622801
2
 1 0.207408
2
 0.977136 1
2
 0.648549 1
2
 1 0.0316816
2
 1 0.0434822
2
 1 0.189647
2
 1 0.0884906
2
 1 0.400998
2
 1 0.141217
2
 1 0.235433
2
 1 0.177665
2
 1 0.117495
2
 1 0.167813
2
 1 0.111926
2
 1 0.187842
2
 1 0.112241
2
 1 0.11737
2
 1 0.119351
2
 1 0.111594
2
 1 0.278864
2
 1 0.102855
2
 1 0.782654
2
 1 0.509716
2
 0.87106 1
2
 1 0.680068
2
 1 0.298432
2
 1 0.644359
2
 1 0.408997
2
 0.272781 1
2
 0.358494 1
2
 1 0.440158
2
 0.683742 1
2
 0.667935 1
2
 1 0.322089
2
 1 0.288476
2
 1 0.377039
2
 1 0.79122
2
 1 0.288971
2
 1 0.40048
2
 1 1.39098e-07
2
 1 0.153795
2
 1 0.205506
2
 1 0.342081
2
 1 0.206449
2
 0.765992 1
2
 1 0.989282
2
 1 0.108461
2
 1 0.193282
2
 1 0.287254
2
 1 0.0685599
2
 0.572114 1
2
 1 0.213533
2
 1 0.316669
2
 1 0.219141
2
 1 0.26362
2
 1 0.517596
2
 1 0.387771
2
 1 0.524938
2
 1 0.222452
2
 0.785747 1
2
 1 0.40569
2
 1 0.372587
2
 1 0.485301
2
 1 0.761345
2
 0.83976 1
4
 0.97012 0.271648 0.271648 1
4
 0.966423 0.268962 0.268962 1
4
 0.964471 0.269393 0.269393 1
4
 0.975308 0.278755 0.278755 1
4
 0.970065 0.274709 0.274709 1
4
 0.976843 0.27913 0.27913 1
4
 0.975418 0.276698 0.276698 1
4
 0.965989 0.267071 0.267071 1
4
 0.966261 0.265471 0.265471 1
4
 0.973504 0.270874 0.270874 1
4
 0.974324 0.272769 0.272769 1
4
 0.97498 0.274753 0.274753 1
4
 0.960364 0.264855 0.264855 1
4
 0.957618 0.261685 0.261685 1
4
 0.958318 0.260651 0.260651 1
4
 0.962578 0.262845 0.262845 1
4
 0.955684 0.262105 0.262105 1
4
 0.953807 0.262648 0.262648 1
4
 0.958693 0.266785 0.266785 1
4
 0.963983 0.270514 0.270514 1
4
 0.947935 0.255448 0.255448 1
4
 0.95108 0.259505 0.259505 1
4
 0.94964 0.254989 0.254989 1
4
 0.953648 0.257945 0.257945 1
4
 1 0.337162 0.337162 0.951966
4
 1 0.334759 0.334759 0.957058
4
 1 0.336448 0.336448 0.957273
4
 1 0.33925 0.33925 0.954215
4
 1 0.341267 0.341267 0.949298
4
 0.996453 0.296747 0.296747 1
4
 0.991987 0.294133 0.294133 1
4
 0.986543 0.288631 0.288631 1
4
 0.988096 0.28902 0.28902 1
4
 0.999592 0.297547 0.297547 1
4
 0.990819 0.289822 0.289822 1
4
 0.995112 0.293455 0.293455 1
4
 0.99539 0.297591 0.297591 1
4
 1 0.302937 0.302937 0.997773
4
 1 0.30242 0.30242 0.994584
4
 1 0.300138 0.300138 0.996988
4
 1 0.338577 0.338577 0.985806
4
 1 0.339533 0.339533 0.98227
4
 1 0.338238 0.338238 0.978965
4
 1 0.340202 0.340202 0.978636
4
 1 0.334674 0.334674 0.989188
4
 1 0.33551 0.33551 0.983428
4
 1 0.341162 0.341162 0.98365
4
 1 0.34384 0.34384 0.980122
4
 1 0.338137 0.338137 0.991191
4
 1 0.33628 0.33628 0.990578
4
 1 0.344811 0.344811 0.976605
4
 1 0.342799 0.342799 0.976495
4
 0.938716 0.257793 0.257793 1
4
 0.937663 0.255833 0.255833 1
4
 0.941937 0.258227 0.258227 1
4
 0.947347 0.264079 0.264079 1
4
 0.946603 0.262366 0.262366 1
4
 0.943683 0.262657 0.262657 1
4
 0.939296 0.259547 0.259547 1
4
 0.933984 0.25349 0.25349 1
4
 0.935611 0.25717 0.25717 1
4
 0.931942 0.249351 0.249351 1
4
 0.937189 0.253917 0.253917 1
4
 0.935035 0.24788 0.24788 1
4
 0.941251 0.252007 0.252007 1
4
 0.944374 0.256009 0.256009 1
4
 0.935245 0.249587 0.249587 1
4
 0.940511 0.254157 0.254157 1
4
 0.936717 0.247848 0.247848 1
4
 0.93074 0.245468 0.245468 1
4
 0.933515 0.244154 0.244154 1
4
 0.928913 0.241507 0.241507 1
4
 0.946073 0.255977 0.255977 1
4
 0.939721 0.248218 0.248218 1
4
 0.944641 0.251522 0.251522 1
4
 0.945329 0.258161 0.258161 1
4
 0.954074 0.264138 0.264138 1
4
 0.950011 0.262299 0.262299 1
4
 0.93619 0.251684 0.251684 1
4
 0.946125 0.260401 0.260401 1
4
 0.98621 0.292179 0.292179 1
4
 0.985491 0.289451 0.289451 1
4
 0.984661 0.289846 0.289846 1
4
 0.992878 0.297815 0.297815 1
4
 0.975416 0.284652 0.284652 1
4
 0.972626 0.2836 0.2836 1
4
 0.967669 0.279668 0.279668 1
4
 0.973884 0.28238 0.28238 1
4
 0.966583 0.27708 0.27708 1
4
 0.978707 0.288345 0.288345 1
4
 0.983942 0.292943 0.292943 1
4
 0.979973 0.287104 0.287104 1
4
 0.98815 0.294998 0.294998 1
4
 0.991101 0.274031 0.274031 1
4
 0.989543 0.274576 0.274576 1
4
 0.987934 0.270899 0.270899 1
4
 0.982016 0.266938 0.266938 1
4
 0.980363 0.267666 0.267666 1
4
 0.98334 0.270834 0.270834 1
4
 0.99982 0.280736 0.280736 1
4
 0.998249 0.281294 0.281294 1
4
 1 0.284875 0.284875 0.996368
4
 1 0.280571 0.280571 0.997767
4
 1 0.284755 0.284755 0.993463
4
 0.995283 0.278133 0.278133 1
4
 0.993665 0.274409 0.274409 1
4
 0.99926 0.278039 0.278039 1
4
 0.99909 0.283263 0.283263 1
4
 0.990933 0.278249 0.278249 1
4
 0.995059 0.281814 0.281814 1
4
 0.987489 0.274889 0.274889 1
4
 0.996067 0.274862 0.274862 1
4
 0.984556 0.267306 0.267306 1
4
 0.989878 0.269889 0.269889 1
4
 1 0.289275 0.289275 0.989956
4
 1 0.286506 0.286506 0.992627
4
 1 0.288262 0.288262 0.994525
4
 1 0.286316 0.286316 0.999563
4
 0.923767 0.228348 0.228348 1
4
 0.927665 0.23138 0.23138 1
4
 0.929177 0.230259 0.230259 1
4
 0.930273 0.232131 0.232131 1
4
 0.921591 0.225807 0.225807 1
4
 0.926415 0.231499 0.231499 1
4
 0.922626 0.229824 0.229824 1
4
 0.92035 0.225923 0.225923 1
4
 0.932731 0.237258 0.237258 1
4
 0.926519 0.232876 0.232876 1
4
 0.936247 0.238322 0.238322 1
4
 0.932941 0.235334 0.235334 1
4
 0.935825 0.242235 0.242235 1
4
 0.938825 0.243001 0.243001 1
4
 0.928915 0.235542 0.235542 1
4
 0.930847 0.238036 0.238036 1
4
 0.938668 0.24105 0.24105 1
4
 0.942311 0.243977 0.243977 1
4
 0.93951 0.245291 0.245291 1
4
 0.931892 0.241867 0.241867 1
4
 0.941411 0.247773 0.247773 1
4
 0.931526 0.240278 0.240278 1
4
 0.944429 0.248556 0.248556 1
4
 0.946022 0.247055 0.247055 1
4
 0.947883 0.249438 0.249438 1
4
 0.926934 0.237674 0.237674 1
4
 0.949801 0.251962 0.251962 1
4
 0.950334 0.253982 0.253982 1
4
 0.924648 0.233639 0.233639 1
4
 1 0.34549 0.34549 0.972993
4
 1 0.349155 0.349155 0.968251
4
 0.976675 0.289155 0.289155 1
4
 0.970934 0.284717 0.284717 1
4
 0.970934 0.283296 0.283296 1
4
 0.981128 0.291861 0.291861 1
4
 0.971697 0.286576 0.286576 1
4
 0.981899 0.293766 0.293766 1
4
 0.983112 0.296292 0.296292 1
4
 0.976291 0.291113 0.291113 1
4
 0.961764 0.278091 0.278091 1
4
 0.961764 0.276703 0.276703 1
4
 0.95493 0.271036 0.271036 1
4
 0.953537 0.272281 0.272281 1
4
 0.951237 0.269576 0.269576 1
4
 0.957937 0.276335 0.276335 1
4
 0.965986 0.280769 0.280769 1
4
 0.970552 0.286645 0.286645 1
4
 0.966853 0.284758 0.284758 1
4
 0.962142 0.280396 0.280396 1
4
 0.964902 0.276783 0.276783 1
4
 0.987594 0.299064 0.299064 1
4
 0.990594 0.298594 0.298594 1
4
 0.992097 0.301359 0.301359 1
4
 1 0.28816 0.28816 0.983472
4
 1 0.281539 0.281539 0.992737
4
 1 0.282786 0.282786 0.988732
4
 1 0.288411 0.288411 0.98088
4
 1 0.285737 0.285737 0.988455
4
 1 0.285866 0.285866 0.982975
4
 1 0.294537 0.294537 0.973583
4
 1 0.291517 0.291517 0.977197
4
 1 0.293977 0.293977 0.977637
4
 1 0.291605 0.291605 0.982093
4
 1 0.288814 0.288814 0.984744
4
 0.997915 0.274039 0.274039 1
4
 1 0.276289 0.276289 0.998046
4
 1 0.279265 0.279265 0.994299
4
 0.995452 0.27346 0.27346 1
4
 1 0.282179 0.282179 0.994021
4
 0.998196 0.272397 0.272397 1
4
 0.988546 0.266006 0.266006 1
4
 0.991715 0.269081 0.269081 1
4
 1 0.277513 0.277513 0.994019
4
 1 0.275772 0.275772 0.99374
4
 1 0.283557 0.283557 0.984521
4
 1 0.28162 0.28162 0.986125
4
 1 0.278742 0.278742 0.990009
4
 1 0.357334 0.357334 0.944834
4
 1 0.359543 0.359543 0.94425
4
 1 0.361887 0.361887 0.940388
4
 1 0.356624 0.356624 0.942713
4
 1 0.354913 0.354913 0.952237
4
 1 0.356946 0.356946 0.948661
4
 1 0.354048 0.354048 0.947117
4
 1 0.351604 0.351604 0.953681
4
 0.981954 0.296363 0.296363 1
4
 0.987594 0.302071 0.302071 1
4
 0.993378 0.306126 0.306126 1
4
 0.993322 0.30395 0.30395 1
4
 0.980741 0.296791 0.296791 1
4
 0.975688 0.293028 0.293028 1
4
 0.971424 0.289267 0.289267 1
4
 0.95546 0.297455 0.297455 1
4
 0.952033 0.296541 0.296541 1
4
 0.954603 0.29525 0.29525 1
4
 0.950004 0.291834 0.291834 1
4
 0.95691 0.300209 0.300209 1
4
 0.959493 0.298903 0.298903 1
4
 0.962028 0.303981 0.303981 1
4
 0.964408 0.304118 0.304118 1
4
 0.958577 0.303048 0.303048 1
4
 0.954014 0.293255 0.293255 1
4
 0.963705 0.300276 0.300276 1
4
 0.963542 0.301864 0.301864 1
4
 0.956589 0.293443 0.293443 1
4
 0.960734 0.296626 0.296626 1
4
 0.96913 0.310915 0.310915 1
4
 0.966088 0.306993 0.306993 1
4
 0.951981 0.290048 0.290048 1
4
 0.947874 0.286936 0.286936 1
4
 0.974807 0.313518 0.313518 1
4
 0.971528 0.311055 0.311055 1
4
 0.978096 0.317056 0.317056 1
4
 0.971911 0.307934 0.307934 1
4
 0.971747 0.309562 0.309562 1
4
 0.978316 0.315534 0.315534 1
4
 0.978372 0.313583 0.313583 1
4
 0.968642 0.305515 0.305515 1
4
 0.973003 0.306182 0.306182 1
4
 0.975246 0.309483 0.309483 1
4
 0.965818 0.300214 0.300214 1
4
 0.968915 0.301665 0.301665 1
4
 0.974815 0.279915 0.279915 1
4
 0.979258 0.284424 0.284424 1
4
 0.981626 0.284419 0.284419 1
4
 0.964253 0.272049 0.272049 1
4
 0.954878 0.26643 0.26643 1
4
 0.961388 0.271244 0.271244 1
4
 0.973994 0.280296 0.280296 1
4
 0.966693 0.275036 0.275036 1
4
 1 0.300385 0.300385 0.965634
4
 1 0.305903 0.305903 0.961901
4
 1 0.299814 0.299814 0.969655
4
 1 0.303177 0.303177 0.966177
4
 1 0.294793 0.294793 0.971017
4
 1 0.295867 0.295867 0.967424
4
 1 0.29728 0.29728 0.971453
4
 1 0.292834 0.292834 0.971016
4
 1 0.289197 0.289197 0.976703
4
 1 0.291398 0.291398 0.968783
4
 1 0.29025 0.29025 0.97309
4
 1 0.309357 0.309357 0.96174
4
 1 0.306136 0.306136 0.964227
4
 0.987704 0.304883 0.304883 1
4
 0.992151 0.306568 0.306568 1
4
 0.981292 0.298672 0.298672 1
4
 0.993098 0.31055 0.31055 1
4
 0.997569 0.312267 0.312267 1
4
 0.994716 0.313718 0.313718 1
4
 1 0.316897 0.316897 0.998
4
 0.999924 0.317894 0.317894 1
4
 0.986428 0.306711 0.306711 1
4
 0.990647 0.310411 0.310411 1
4
 0.983553 0.303406 0.303406 1
4
 0.997906 0.308476 0.308476 1
4
 1 0.315167 0.315167 0.997607
4
 1 0.313307 0.313307 0.997047
4
 0.979968 0.306392 0.306392 1
4
 0.979693 0.304663 0.304663 1
4
 0.973442 0.299732 0.299732 1
4
 0.976397 0.305818 0.305818 1
4
 0.980738 0.308393 0.308393 1
4
 0.972294 0.301308 0.301308 1
4
 0.968698 0.297611 0.297611 1
4
 0.984104 0.307884 0.307884 1
4
 0.988313 0.311598 0.311598 1
4
 0.985154 0.311653 0.311653 1
4
 0.988036 0.309839 0.309839 1
4
 0.98096 0.302847 0.302847 1
4
 0.977551 0.301191 0.301191 1
4
 0.98909 0.313632 0.313632 1
4
 0.994324 0.316897 0.316897 1
4
 0.997456 0.317751 0.317751 1
4
 0.971805 0.294106 0.294106 1
4
 0.970878 0.291791 0.291791 1
4
 0.966635 0.288045 0.288045 1
4
 0.968427 0.292498 0.292498 1
4
 0.963167 0.2886 0.2886 1
4
 0.960251 0.285224 0.285224 1
4
 0.960845 0.284307 0.284307 1
4
 0.977167 0.297225 0.297225 1
4
 0.974701 0.297945 0.297945 1
4
 0.971969 0.291099 0.291099 1
4
 0.961925 0.283633 0.283633 1
4
 0.963006 0.282961 0.282961 1
4
 0.966037 0.292367 0.292367 1
4
 0.966579 0.29422 0.29422 1
4
 1 0.332963 0.332963 0.957326
4
 1 0.333691 0.333691 0.952447
4
 1 0.339436 0.339436 0.949564
4
 1 0.327571 0.327571 0.965207
4
 1 0.321704 0.321704 0.969824
4
 1 0.324697 0.324697 0.964827
4
 1 0.328286 0.328286 0.960287
4
 1 0.320809 0.320809 0.973534
4
 1 0.323676 0.323676 0.971678
4
 1 0.329848 0.329848 0.966943
4
 1 0.332259 0.332259 0.962663
4
 1 0.331312 0.331312 0.957541
4
 1 0.326659 0.326659 0.968899
4
 0.978275 0.259495 0.259495 1
4
 0.980805 0.262903 0.262903 1
4
 0.986106 0.265444 0.265444 1
4
 0.976135 0.259982 0.259982 1
4
 0.970288 0.254902 0.254902 1
4
 0.97165 0.257024 0.257024 1
4
 0.966156 0.251864 0.251864 1
4
 0.983949 0.265942 0.265942 1
4
 0.972523 0.260675 0.260675 1
4
 0.974163 0.2604 0.2604 1
4
 0.977011 0.264116 0.264116 1
4
 1 0.357108 0.357108 0.95165
4
 1 0.35293 0.35293 0.959322
4
 1 0.351763 0.351763 0.956685
4
 1 0.361494 0.361494 0.944198
4
 0.951559 0.266303 0.266303 1
4
 0.958046 0.271114 0.271114 1
4
 0.948624 0.266597 0.266597 1
4
 0.971099 0.279466 0.279466 1
4
 0.957293 0.269355 0.269355 1
4
 1 0.331673 0.331673 0.970425
4
 1 0.331513 0.331513 0.967161
4
 1 0.328853 0.328853 0.974685
4
 1 0.326074 0.326074 0.976492
4
 1 0.325926 0.325926 0.973426
4
 1 0.334097 0.334097 0.96613
4
 1 0.336854 0.336854 0.96814
4
 1 0.336862 0.336862 0.96548
4
 1 0.331417 0.331417 0.973646
4
 1 0.333864 0.333864 0.972662
4
 1 0.336716 0.336716 0.959803
4
 1 0.336698 0.336698 0.962232
4
 1 0.339477 0.339477 0.964234
4
 1 0.339496 0.339496 0.970209
4
 1 0.336456 0.336456 0.971408
4
 1 0.341859 0.341859 0.966403
4
 1 0.342886 0.342886 0.961369
4
 1 0.343947 0.343947 0.962504
4
 1 0.339502 0.339502 0.959157
4
 1 0.341539 0.341539 0.951807
4
 1 0.342908 0.342908 0.953466
4
 1 0.342894 0.342894 0.958727
4
 1 0.34289 0.34289 0.955878
4
 0.942789 0.241351 0.241351 1
4
 0.938353 0.236404 0.236404 1
4
 0.93946 0.238325 0.238325 1
4
 0.948257 0.244071 0.244071 1
4
 0.945068 0.240544 0.240544 1
4
 0.938879 0.239095 0.239095 1
4
 0.945864 0.24507 0.24507 1
4
 0.947671 0.244858 0.244858 1
4
 0.934462 0.234194 0.234194 1
4
 0.940041 0.236373 0.236373 1
4
 0.951403 0.25044 0.25044 1
4
 0.955579 0.252431 0.252431 1
4
 0.95135 0.247832 0.247832 1
4
 0.964041 0.257436 0.257436 1
4
 0.962959 0.254205 0.254205 1
4
 0.959774 0.252746 0.252746 1
4
 0.968055 0.257709 0.257709 1
4
 0.970886 0.261387 0.261387 1
4
 0.957459 0.254866 0.254866 1
4
 0.953809 0.254883 0.254883 1
4
 0.95805 0.257029 0.257029 1
4
 0.957406 0.252212 0.252212 1
4
 0.966099 0.261152 0.261152 1
4
 0.962255 0.259072 0.259072 1
4
 0.96849 0.260834 0.260834 1
4
 0.96323 0.25184 0.25184 1
4
 0.968328 0.255311 0.255311 1
4
 0.962852 0.250186 0.250186 1
4
 0.956332 0.249046 0.249046 1
4
 0.953115 0.245448 0.245448 1
4
 0.964583 0.253936 0.253936 1
4
 0.959129 0.248839 0.248839 1
4
 0.949963 0.244039 0.244039 1
4
 0.952741 0.243836 0.243836 1
4
 1 0.297521 0.297521 0.976924
4
 1 0.295121 0.295121 0.981378
4
 1 0.300858 0.300858 0.97342
4
 1 0.300748 0.300748 0.976596
4
 1 0.296566 0.296566 0.983419
4
 1 0.294322 0.294322 0.979946
4
 1 0.300043 0.300043 0.972
4
 1 0.289153 0.289153 0.987069
4
 1 0.290926 0.290926 0.988956
4
 1 0.293377 0.293377 0.986461
4
 1 0.317417 0.317417 0.95813
4
 1 0.316446 0.316446 0.962714
4
 1 0.320981 0.320981 0.957539
4
 1 0.314383 0.314383 0.963579
4
 1 0.312575 0.312575 0.961255
4
 1 0.311716 0.311716 0.965149
4
 1 0.315142 0.315142 0.96857
4
 1 0.317913 0.317913 0.962985
4
 1 0.309801 0.309801 0.974188
4
 1 0.310762 0.310762 0.969767
4
 1 0.312079 0.312079 0.972986
4
 1 0.317862 0.317862 0.970313
4
 1 0.320819 0.320819 0.965314
4
 1 0.319658 0.319658 0.963364
4
 1 0.313792 0.313792 0.973368
4
 1 0.321822 0.321822 0.96667
4
 1 0.317968 0.317968 0.975394
4
 1 0.314766 0.314766 0.977422
4
 1 0.314773 0.314773 0.974736
4
 1 0.326501 0.326501 0.957271
4
 1 0.325319 0.325319 0.955338
4
 1 0.33011 0.33011 0.952767
4
 1 0.323641 0.323641 0.959747
4
 1 0.328406 0.328406 0.957164
4
 1 0.341492 0.341492 0.97321
4
 1 0.336482 0.336482 0.974741
4
 1 0.341885 0.341885 0.969719
4
 1 0.336782 0.336782 0.977976
4
 1 0.347117 0.347117 0.968142
4
 1 0.343869 0.343869 0.969393
4
 1 0.347517 0.347517 0.964669
4
 1 0.349639 0.349639 0.960777
4
 0.981673 0.317121 0.317121 1
4
 0.984488 0.321498 0.321498 1
4
 0.981564 0.311069 0.311069 1
4
 0.979472 0.311798 0.311798 1
4
 0.973113 0.303922 0.303922 1
4
 0.983826 0.314423 0.314423 1
4
 0.988533 0.317426 0.317426 1
4
 0.991758 0.31911 0.31911 1
4
 0.991146 0.316953 0.316953 1
4
 0.986426 0.31817 0.31817 1
4
 0.984544 0.319509 0.319509 1
4
 0.993597 0.324584 0.324584 1
4
 0.989254 0.322561 0.322561 1
4
 0.994379 0.322912 0.322912 1
4
 0.991701 0.32595 0.32595 1
4
 1 0.332672 0.332672 0.999574
4
 0.996166 0.329945 0.329945 1
4
 1 0.330844 0.330844 0.998956
4
 0.996838 0.326305 0.326305 1
4
 0.991812 0.327889 0.327889 1
4
 1 0.334613 0.334613 0.999462
4
 1 0.334239 0.334239 0.994591
4
 1 0.308518 0.308518 0.991407
4
 1 0.308502 0.308502 0.993915
4
 0.999703 0.303843 0.303843 1
4
 1 0.306283 0.306283 0.998783
4
 1 0.305102 0.305102 0.992241
4
 1 0.308166 0.308166 0.989293
4
 1 0.314249 0.314249 0.983258
4
 1 0.311422 0.311422 0.989905
4
 1 0.311084 0.311084 0.985302
4
 1 0.314232 0.314232 0.985745
4
 1 0.319917 0.319917 0.977259
4
 1 0.317705 0.317705 0.981107
4
 1 0.31389 0.31389 0.981161
4
 1 0.309166 0.309166 0.99727
4
 1 0.313351 0.313351 0.992243
4
 1 0.314848 0.314848 0.98774
4
 0.99634 0.303473 0.303473 1
4
 1 0.311098 0.311098 0.997102
4
 1 0.328768 0.328768 0.98144
4
 1 0.331196 0.331196 0.980449
4
 1 0.326548 0.326548 0.986413
4
 1 0.325006 0.325006 0.991132
4
 1 0.331492 0.331492 0.983703
4
 1 0.327745 0.327745 0.988631
4
 1 0.331025 0.331025 0.976932
4
 1 0.326379 0.326379 0.982874
4
 1 0.325821 0.325821 0.979733
4
 1 0.333767 0.333767 0.979184
4
 1 0.321608 0.321608 0.990519
4
 1 0.323621 0.323621 0.984696
4
 1 0.322645 0.322645 0.99258
4
 1 0.321059 0.321059 0.987354
4
 1 0.31718 0.31718 0.992634
4
 1 0.32009 0.32009 0.995258
4
 1 0.322922 0.322922 0.978467
4
 1 0.319165 0.319165 0.986799
4
 1 0.320689 0.320689 0.982321
4
 1 0.320544 0.320544 0.979236
4
 1 0.316815 0.316815 0.987575
4
 0.981737 0.282321 0.282321 1
4
 0.98588 0.285593 0.285593 1
4
 1 0.34678 0.34678 0.945044
4
 1 0.351679 0.351679 0.94409
4
 1 0.348171 0.348171 0.946691
4
 1 0.344946 0.344946 0.948553
4
 1 0.303605 0.303605 0.98138
4
 1 0.300163 0.300163 0.986074
4
 1 0.304547 0.304547 0.976926
4
 1 0.302097 0.302097 0.978682
4
 1 0.297896 0.297896 0.98552
4
 1 0.302751 0.302751 0.984913
4
 1 0.305401 0.305401 0.984637
4
 1 0.303097 0.303097 0.987017
4
 1 0.307173 0.307173 0.975775
4
 1 0.308474 0.308474 0.979014
4
 1 0.29966 0.29966 0.991739
4
 1 0.296298 0.296298 0.994415
4
 1 0.297057 0.297057 0.989068
4
 1 0.302283 0.302283 0.991461
4
 1 0.30764 0.30764 0.986132
4
 1 0.307646 0.307646 0.983422
4
 1 0.296636 0.296636 0.996539
4
 1 0.297208 0.297208 0.998332
4
 1 0.286564 0.286564 0.971233
4
 1 0.28239 0.28239 0.976317
4
 1 0.283486 0.283486 0.97714
4
 1 0.287778 0.287778 0.974456
4
 1 0.285813 0.285813 0.976044
4
 1 0.284687 0.284687 0.980384
4
 1 0.28165 0.28165 0.981154
4
 1 0.278772 0.278772 0.985018
4
 1 0.279854 0.279854 0.985848
4
 0.950432 0.28712 0.28712 1
4
 0.953372 0.28776 0.28776 1
4
 0.958686 0.293382 0.293382 1
4
 0.945111 0.281018 0.281018 1
4
 0.949259 0.284672 0.284672 1
4
 0.946758 0.278984 0.278984 1
4
 0.950914 0.282612 0.282612 1
4
 0.946068 0.27638 0.27638 1
4
 0.955195 0.284175 0.284175 1
4
 0.952304 0.280851 0.280851 1
4
 0.948035 0.281645 0.281645 1
4
 0.943203 0.275434 0.275434 1
4
 0.956483 0.286885 0.286885 1
4
 0.95702 0.288702 0.288702 1
4
 0.948728 0.277277 0.277277 1
4
 0.941617 0.270715 0.270715 1
4
 0.945537 0.27327 0.27327 1
4
 0.957881 0.285096 0.285096 1
4
 0.961329 0.290299 0.290299 1
4
 0.955572 0.280855 0.280855 1
4
 0.95177 0.27769 0.27769 1
4
 0.965927 0.297998 0.297998 1
4
 0.962354 0.294343 0.294343 1
4
 0.96544 0.295766 0.295766 1
4
 1 0.346367 0.346367 0.962018
4
 0.966696 0.263368 0.263368 1
4
 0.973942 0.268729 0.268729 1
4
 0.972959 0.26516 0.26516 1
4
 0.975913 0.268298 0.268298 1
4
 0.958587 0.259089 0.259089 1
4
 0.970067 0.266588 0.266588 1
4
 0.982896 0.277124 0.277124 1
4
 0.978161 0.273917 0.273917 1
4
 0.982731 0.274898 0.274898 1
4
 0.979316 0.271578 0.271578 1
4
 0.983724 0.279063 0.279063 1
4
 0.984387 0.281092 0.281092 1
4
 0.988541 0.284351 0.284351 1
4
 0.98832 0.280062 0.280062 1
4
 0.992435 0.283649 0.283649 1
4
 0.994946 0.286763 0.286763 1
4
 0.99461 0.287877 0.287877 1
4
 0.979645 0.27784 0.27784 1
4
 0.984442 0.283105 0.283105 1
4
 0.994666 0.289938 0.289938 1
4
 0.99288 0.289976 0.289976 1
4
 1 0.349823 0.349823 0.95042
4
 1 0.349819 0.349819 0.947595
4
 1 0.350905 0.350905 0.951541
4
 1 0.346333 0.346333 0.953038
4
 1 0.347408 0.347408 0.957007
4
 1 0.28795 0.28795 0.998554
4
 1 0.290376 0.290376 0.996034
4
 1 0.29235 0.29235 0.991013
4
 0.992269 0.281371 0.281371 1
4
 0.98472 0.274458 0.274458 1
4
 0.978328 0.267971 0.267971 1
4
 0.998921 0.288103 0.288103 1
4
 1 0.308975 0.308975 0.967427
4
 1 0.306601 0.306601 0.966015
4
 1 0.306489 0.306489 0.969167
4
 1 0.305647 0.305647 0.973093
4
 1 0.303298 0.303298 0.971673
4
 1 0.298971 0.298971 0.981654
4
 0.94724 0.267823 0.267823 1
4
 0.944424 0.267475 0.267475 1
4
 0.953911 0.274539 0.274539 1
4
 0.949049 0.27209 0.27209 1
4
 0.942147 0.264817 0.264817 1
4
 0.940562 0.262022 0.262022 1
4
 0.937766 0.261682 0.261682 1
4
 0.940033 0.266521 0.266521 1
4
 0.943947 0.269036 0.269036 1
4
 0.957237 0.279288 0.279288 1
4
 0.952358 0.276797 0.276797 1
4
 0.944636 0.271119 0.271119 1
4
 0.953429 0.276141 0.276141 1
4
 1 0.328882 0.328882 0.998171
4
 1 0.330599 0.330599 0.993809
4
 1 0.333233 0.333233 0.988188
4
 0.997007 0.322431 0.322431 1
4
 1 0.327097 0.327097 0.998002
4
 1 0.325087 0.325087 0.998619
4
 0.99953 0.321116 0.321116 1
4
 1 0.323973 0.323973 0.997946
4
 1 0.331425 0.331425 0.988021
4
 1 0.327678 0.327678 0.992971
4
 1 0.323827 0.323827 0.994812
4
 1 0.330289 0.330289 0.987356
4
 1 0.310736 0.310736 0.9805
4
 1 0.292074 0.292074 0.998891
4
 1 0.292822 0.292822 0.993521
4
 1 0.29406 0.29406 0.993856
4
 0.998975 0.293572 0.293572 1
1
 1

